(declare-const X String)
; \d+(/\d+)?
(assert (str.in.re X (re.++ (re.+ (re.range "0" "9")) (re.opt (re.++ (str.to.re "/") (re.+ (re.range "0" "9")))) (str.to.re "\x0a"))))
; [^(\&)](\w*)+(\=)[\w\d ]*
(assert (not (str.in.re X (re.++ (re.union (str.to.re "(") (str.to.re "&") (str.to.re ")")) (re.+ (re.* (re.union (re.range "0" "9") (re.range "A" "Z") (re.range "a" "z") (str.to.re "_")))) (str.to.re "=") (re.* (re.union (re.range "0" "9") (str.to.re " ") (re.range "0" "9") (re.range "A" "Z") (re.range "a" "z") (str.to.re "_"))) (str.to.re "\x0a")))))
; /^[1-9][0-9][0-9][0-9][0-9][0-9]$/
(assert (str.in.re X (re.++ (str.to.re "/") (re.range "1" "9") (re.range "0" "9") (re.range "0" "9") (re.range "0" "9") (re.range "0" "9") (re.range "0" "9") (str.to.re "/\x0a"))))
; ^\s*[a-zA-Z,\s]+\s*$
(assert (str.in.re X (re.++ (re.* (re.union (str.to.re " ") (str.to.re "\x09") (str.to.re "\x0a") (str.to.re "\x0c") (str.to.re "\x0d"))) (re.+ (re.union (re.range "a" "z") (re.range "A" "Z") (str.to.re ",") (str.to.re " ") (str.to.re "\x09") (str.to.re "\x0a") (str.to.re "\x0c") (str.to.re "\x0d"))) (re.* (re.union (str.to.re " ") (str.to.re "\x09") (str.to.re "\x0a") (str.to.re "\x0c") (str.to.re "\x0d"))) (str.to.re "\x0a"))))
; HWAE.*wowokay\s%3fsearchresltX-Mailer\x3AisSubject\x3a
(assert (str.in.re X (re.++ (str.to.re "HWAE") (re.* re.allchar) (str.to.re "wowokay") (re.union (str.to.re " ") (str.to.re "\x09") (str.to.re "\x0a") (str.to.re "\x0c") (str.to.re "\x0d")) (str.to.re "%3fsearchresltX-Mailer:\x13isSubject:\x0a"))))
(check-sat)
